c Generated after 1 tries
c Graph with 160 nodes and 900 edges, Max edges:12720
c generated from an undirected graph
c to solve unweighted MaxCut
p cnf 160 1800
1 53 0
-1 -53 0
1 67 0
-1 -67 0
1 108 0
-1 -108 0
1 130 0
-1 -130 0
1 146 0
-1 -146 0
1 159 0
-1 -159 0
2 19 0
-2 -19 0
2 29 0
-2 -29 0
2 33 0
-2 -33 0
2 36 0
-2 -36 0
2 47 0
-2 -47 0
2 50 0
-2 -50 0
2 60 0
-2 -60 0
2 69 0
-2 -69 0
2 71 0
-2 -71 0
2 95 0
-2 -95 0
2 96 0
-2 -96 0
2 108 0
-2 -108 0
2 124 0
-2 -124 0
2 139 0
-2 -139 0
2 143 0
-2 -143 0
2 157 0
-2 -157 0
3 17 0
-3 -17 0
3 23 0
-3 -23 0
3 24 0
-3 -24 0
3 46 0
-3 -46 0
3 50 0
-3 -50 0
3 86 0
-3 -86 0
3 103 0
-3 -103 0
3 115 0
-3 -115 0
3 120 0
-3 -120 0
3 141 0
-3 -141 0
4 18 0
-4 -18 0
4 19 0
-4 -19 0
4 35 0
-4 -35 0
4 50 0
-4 -50 0
4 81 0
-4 -81 0
4 83 0
-4 -83 0
4 111 0
-4 -111 0
4 113 0
-4 -113 0
4 126 0
-4 -126 0
4 135 0
-4 -135 0
4 150 0
-4 -150 0
4 155 0
-4 -155 0
5 14 0
-5 -14 0
5 27 0
-5 -27 0
5 29 0
-5 -29 0
5 44 0
-5 -44 0
5 47 0
-5 -47 0
5 66 0
-5 -66 0
5 74 0
-5 -74 0
5 78 0
-5 -78 0
5 84 0
-5 -84 0
5 90 0
-5 -90 0
5 103 0
-5 -103 0
5 115 0
-5 -115 0
5 121 0
-5 -121 0
5 127 0
-5 -127 0
5 144 0
-5 -144 0
5 154 0
-5 -154 0
6 42 0
-6 -42 0
6 55 0
-6 -55 0
6 61 0
-6 -61 0
6 62 0
-6 -62 0
6 88 0
-6 -88 0
6 89 0
-6 -89 0
6 126 0
-6 -126 0
6 141 0
-6 -141 0
6 156 0
-6 -156 0
6 157 0
-6 -157 0
6 160 0
-6 -160 0
7 9 0
-7 -9 0
7 13 0
-7 -13 0
7 32 0
-7 -32 0
7 47 0
-7 -47 0
7 51 0
-7 -51 0
7 60 0
-7 -60 0
7 113 0
-7 -113 0
7 128 0
-7 -128 0
7 137 0
-7 -137 0
7 153 0
-7 -153 0
8 44 0
-8 -44 0
8 60 0
-8 -60 0
8 64 0
-8 -64 0
8 133 0
-8 -133 0
8 136 0
-8 -136 0
8 142 0
-8 -142 0
8 148 0
-8 -148 0
8 158 0
-8 -158 0
8 159 0
-8 -159 0
9 23 0
-9 -23 0
9 47 0
-9 -47 0
9 53 0
-9 -53 0
9 83 0
-9 -83 0
9 98 0
-9 -98 0
9 101 0
-9 -101 0
9 104 0
-9 -104 0
9 127 0
-9 -127 0
9 134 0
-9 -134 0
9 143 0
-9 -143 0
9 144 0
-9 -144 0
9 145 0
-9 -145 0
9 154 0
-9 -154 0
9 159 0
-9 -159 0
10 23 0
-10 -23 0
10 44 0
-10 -44 0
10 46 0
-10 -46 0
10 62 0
-10 -62 0
10 67 0
-10 -67 0
10 69 0
-10 -69 0
10 84 0
-10 -84 0
10 85 0
-10 -85 0
10 99 0
-10 -99 0
10 101 0
-10 -101 0
10 147 0
-10 -147 0
11 29 0
-11 -29 0
11 73 0
-11 -73 0
11 99 0
-11 -99 0
11 110 0
-11 -110 0
11 113 0
-11 -113 0
11 116 0
-11 -116 0
11 119 0
-11 -119 0
11 121 0
-11 -121 0
11 127 0
-11 -127 0
11 128 0
-11 -128 0
11 137 0
-11 -137 0
12 45 0
-12 -45 0
12 63 0
-12 -63 0
12 64 0
-12 -64 0
12 65 0
-12 -65 0
12 76 0
-12 -76 0
12 93 0
-12 -93 0
12 94 0
-12 -94 0
12 96 0
-12 -96 0
12 114 0
-12 -114 0
12 118 0
-12 -118 0
12 119 0
-12 -119 0
12 137 0
-12 -137 0
12 141 0
-12 -141 0
12 151 0
-12 -151 0
12 157 0
-12 -157 0
13 18 0
-13 -18 0
13 34 0
-13 -34 0
13 35 0
-13 -35 0
13 77 0
-13 -77 0
13 88 0
-13 -88 0
13 90 0
-13 -90 0
13 91 0
-13 -91 0
13 111 0
-13 -111 0
13 114 0
-13 -114 0
13 121 0
-13 -121 0
13 126 0
-13 -126 0
13 141 0
-13 -141 0
13 160 0
-13 -160 0
14 32 0
-14 -32 0
14 44 0
-14 -44 0
14 47 0
-14 -47 0
14 60 0
-14 -60 0
14 68 0
-14 -68 0
14 92 0
-14 -92 0
14 93 0
-14 -93 0
14 97 0
-14 -97 0
14 115 0
-14 -115 0
14 131 0
-14 -131 0
15 33 0
-15 -33 0
15 34 0
-15 -34 0
15 50 0
-15 -50 0
15 116 0
-15 -116 0
15 129 0
-15 -129 0
15 130 0
-15 -130 0
15 134 0
-15 -134 0
15 143 0
-15 -143 0
15 156 0
-15 -156 0
16 19 0
-16 -19 0
16 38 0
-16 -38 0
16 41 0
-16 -41 0
16 46 0
-16 -46 0
16 54 0
-16 -54 0
16 82 0
-16 -82 0
16 103 0
-16 -103 0
16 105 0
-16 -105 0
16 109 0
-16 -109 0
16 118 0
-16 -118 0
16 122 0
-16 -122 0
16 138 0
-16 -138 0
16 141 0
-16 -141 0
16 142 0
-16 -142 0
16 144 0
-16 -144 0
16 155 0
-16 -155 0
17 25 0
-17 -25 0
17 77 0
-17 -77 0
17 101 0
-17 -101 0
17 108 0
-17 -108 0
17 123 0
-17 -123 0
17 124 0
-17 -124 0
18 20 0
-18 -20 0
18 33 0
-18 -33 0
18 51 0
-18 -51 0
18 64 0
-18 -64 0
18 68 0
-18 -68 0
18 70 0
-18 -70 0
18 93 0
-18 -93 0
18 110 0
-18 -110 0
18 129 0
-18 -129 0
18 137 0
-18 -137 0
18 138 0
-18 -138 0
18 142 0
-18 -142 0
18 150 0
-18 -150 0
18 154 0
-18 -154 0
19 59 0
-19 -59 0
19 70 0
-19 -70 0
19 78 0
-19 -78 0
19 98 0
-19 -98 0
19 106 0
-19 -106 0
19 116 0
-19 -116 0
19 160 0
-19 -160 0
20 43 0
-20 -43 0
20 77 0
-20 -77 0
20 91 0
-20 -91 0
20 123 0
-20 -123 0
20 138 0
-20 -138 0
20 142 0
-20 -142 0
21 24 0
-21 -24 0
21 33 0
-21 -33 0
21 34 0
-21 -34 0
21 36 0
-21 -36 0
21 87 0
-21 -87 0
21 88 0
-21 -88 0
21 139 0
-21 -139 0
21 143 0
-21 -143 0
21 148 0
-21 -148 0
22 24 0
-22 -24 0
22 42 0
-22 -42 0
22 44 0
-22 -44 0
22 62 0
-22 -62 0
22 70 0
-22 -70 0
22 72 0
-22 -72 0
22 73 0
-22 -73 0
22 99 0
-22 -99 0
22 135 0
-22 -135 0
22 142 0
-22 -142 0
22 159 0
-22 -159 0
23 70 0
-23 -70 0
23 73 0
-23 -73 0
23 102 0
-23 -102 0
23 156 0
-23 -156 0
24 41 0
-24 -41 0
24 44 0
-24 -44 0
24 51 0
-24 -51 0
24 57 0
-24 -57 0
24 68 0
-24 -68 0
24 76 0
-24 -76 0
24 79 0
-24 -79 0
24 90 0
-24 -90 0
24 95 0
-24 -95 0
24 101 0
-24 -101 0
24 106 0
-24 -106 0
24 117 0
-24 -117 0
24 120 0
-24 -120 0
24 122 0
-24 -122 0
24 160 0
-24 -160 0
25 26 0
-25 -26 0
25 33 0
-25 -33 0
25 62 0
-25 -62 0
25 76 0
-25 -76 0
25 78 0
-25 -78 0
25 79 0
-25 -79 0
25 80 0
-25 -80 0
25 115 0
-25 -115 0
25 116 0
-25 -116 0
25 135 0
-25 -135 0
25 138 0
-25 -138 0
26 29 0
-26 -29 0
26 33 0
-26 -33 0
26 74 0
-26 -74 0
26 89 0
-26 -89 0
26 90 0
-26 -90 0
26 95 0
-26 -95 0
26 96 0
-26 -96 0
26 97 0
-26 -97 0
26 113 0
-26 -113 0
26 125 0
-26 -125 0
26 130 0
-26 -130 0
26 133 0
-26 -133 0
26 135 0
-26 -135 0
27 48 0
-27 -48 0
27 49 0
-27 -49 0
27 51 0
-27 -51 0
27 53 0
-27 -53 0
27 61 0
-27 -61 0
27 62 0
-27 -62 0
27 76 0
-27 -76 0
27 81 0
-27 -81 0
27 83 0
-27 -83 0
27 89 0
-27 -89 0
27 108 0
-27 -108 0
27 153 0
-27 -153 0
28 40 0
-28 -40 0
28 41 0
-28 -41 0
28 50 0
-28 -50 0
28 53 0
-28 -53 0
28 58 0
-28 -58 0
28 66 0
-28 -66 0
28 94 0
-28 -94 0
28 102 0
-28 -102 0
28 103 0
-28 -103 0
28 105 0
-28 -105 0
28 112 0
-28 -112 0
28 137 0
-28 -137 0
28 146 0
-28 -146 0
28 149 0
-28 -149 0
28 150 0
-28 -150 0
28 156 0
-28 -156 0
29 37 0
-29 -37 0
29 83 0
-29 -83 0
29 97 0
-29 -97 0
29 107 0
-29 -107 0
29 124 0
-29 -124 0
29 125 0
-29 -125 0
29 132 0
-29 -132 0
29 136 0
-29 -136 0
29 148 0
-29 -148 0
30 32 0
-30 -32 0
30 51 0
-30 -51 0
30 62 0
-30 -62 0
30 65 0
-30 -65 0
30 74 0
-30 -74 0
30 130 0
-30 -130 0
30 133 0
-30 -133 0
30 141 0
-30 -141 0
31 32 0
-31 -32 0
31 39 0
-31 -39 0
31 47 0
-31 -47 0
31 67 0
-31 -67 0
31 84 0
-31 -84 0
31 97 0
-31 -97 0
31 107 0
-31 -107 0
31 118 0
-31 -118 0
31 122 0
-31 -122 0
31 126 0
-31 -126 0
31 154 0
-31 -154 0
31 159 0
-31 -159 0
32 47 0
-32 -47 0
32 73 0
-32 -73 0
32 89 0
-32 -89 0
32 117 0
-32 -117 0
32 128 0
-32 -128 0
32 143 0
-32 -143 0
33 50 0
-33 -50 0
33 56 0
-33 -56 0
33 80 0
-33 -80 0
33 90 0
-33 -90 0
33 110 0
-33 -110 0
33 118 0
-33 -118 0
33 129 0
-33 -129 0
34 43 0
-34 -43 0
34 61 0
-34 -61 0
34 119 0
-34 -119 0
34 149 0
-34 -149 0
34 150 0
-34 -150 0
34 154 0
-34 -154 0
34 160 0
-34 -160 0
35 67 0
-35 -67 0
35 82 0
-35 -82 0
35 96 0
-35 -96 0
35 101 0
-35 -101 0
35 115 0
-35 -115 0
35 117 0
-35 -117 0
35 139 0
-35 -139 0
35 149 0
-35 -149 0
36 39 0
-36 -39 0
36 73 0
-36 -73 0
36 97 0
-36 -97 0
36 115 0
-36 -115 0
36 137 0
-36 -137 0
37 48 0
-37 -48 0
37 72 0
-37 -72 0
37 82 0
-37 -82 0
37 89 0
-37 -89 0
37 109 0
-37 -109 0
37 116 0
-37 -116 0
37 126 0
-37 -126 0
37 132 0
-37 -132 0
37 144 0
-37 -144 0
37 150 0
-37 -150 0
37 157 0
-37 -157 0
38 45 0
-38 -45 0
38 47 0
-38 -47 0
38 51 0
-38 -51 0
38 68 0
-38 -68 0
38 88 0
-38 -88 0
38 104 0
-38 -104 0
38 134 0
-38 -134 0
38 159 0
-38 -159 0
39 45 0
-39 -45 0
39 52 0
-39 -52 0
39 55 0
-39 -55 0
39 61 0
-39 -61 0
39 80 0
-39 -80 0
39 83 0
-39 -83 0
39 126 0
-39 -126 0
39 139 0
-39 -139 0
39 142 0
-39 -142 0
39 152 0
-39 -152 0
39 157 0
-39 -157 0
39 160 0
-39 -160 0
40 52 0
-40 -52 0
40 57 0
-40 -57 0
40 89 0
-40 -89 0
40 100 0
-40 -100 0
40 137 0
-40 -137 0
41 56 0
-41 -56 0
41 57 0
-41 -57 0
41 62 0
-41 -62 0
41 67 0
-41 -67 0
41 115 0
-41 -115 0
41 120 0
-41 -120 0
41 122 0
-41 -122 0
41 129 0
-41 -129 0
41 132 0
-41 -132 0
42 43 0
-42 -43 0
42 49 0
-42 -49 0
42 67 0
-42 -67 0
42 72 0
-42 -72 0
42 118 0
-42 -118 0
42 119 0
-42 -119 0
42 130 0
-42 -130 0
42 143 0
-42 -143 0
42 144 0
-42 -144 0
42 152 0
-42 -152 0
43 56 0
-43 -56 0
43 62 0
-43 -62 0
43 63 0
-43 -63 0
43 65 0
-43 -65 0
43 86 0
-43 -86 0
43 89 0
-43 -89 0
43 108 0
-43 -108 0
43 114 0
-43 -114 0
43 158 0
-43 -158 0
44 73 0
-44 -73 0
44 74 0
-44 -74 0
44 87 0
-44 -87 0
44 97 0
-44 -97 0
44 121 0
-44 -121 0
44 127 0
-44 -127 0
44 145 0
-44 -145 0
44 154 0
-44 -154 0
44 156 0
-44 -156 0
45 49 0
-45 -49 0
45 68 0
-45 -68 0
45 70 0
-45 -70 0
45 77 0
-45 -77 0
45 86 0
-45 -86 0
45 113 0
-45 -113 0
45 138 0
-45 -138 0
45 142 0
-45 -142 0
45 143 0
-45 -143 0
45 155 0
-45 -155 0
46 58 0
-46 -58 0
46 62 0
-46 -62 0
46 78 0
-46 -78 0
46 92 0
-46 -92 0
46 115 0
-46 -115 0
46 129 0
-46 -129 0
46 138 0
-46 -138 0
47 63 0
-47 -63 0
47 150 0
-47 -150 0
47 151 0
-47 -151 0
47 160 0
-47 -160 0
48 76 0
-48 -76 0
48 80 0
-48 -80 0
48 100 0
-48 -100 0
48 103 0
-48 -103 0
48 150 0
-48 -150 0
48 151 0
-48 -151 0
48 154 0
-48 -154 0
49 74 0
-49 -74 0
49 78 0
-49 -78 0
49 84 0
-49 -84 0
49 89 0
-49 -89 0
49 101 0
-49 -101 0
49 116 0
-49 -116 0
49 118 0
-49 -118 0
49 120 0
-49 -120 0
49 135 0
-49 -135 0
49 154 0
-49 -154 0
50 58 0
-50 -58 0
50 69 0
-50 -69 0
50 82 0
-50 -82 0
50 90 0
-50 -90 0
50 95 0
-50 -95 0
50 117 0
-50 -117 0
50 133 0
-50 -133 0
50 134 0
-50 -134 0
50 136 0
-50 -136 0
50 144 0
-50 -144 0
50 155 0
-50 -155 0
51 57 0
-51 -57 0
51 60 0
-51 -60 0
51 66 0
-51 -66 0
51 70 0
-51 -70 0
51 78 0
-51 -78 0
51 92 0
-51 -92 0
51 100 0
-51 -100 0
51 111 0
-51 -111 0
51 119 0
-51 -119 0
51 144 0
-51 -144 0
52 59 0
-52 -59 0
52 62 0
-52 -62 0
52 65 0
-52 -65 0
52 67 0
-52 -67 0
52 89 0
-52 -89 0
52 96 0
-52 -96 0
52 124 0
-52 -124 0
52 127 0
-52 -127 0
53 58 0
-53 -58 0
53 66 0
-53 -66 0
53 79 0
-53 -79 0
53 88 0
-53 -88 0
53 104 0
-53 -104 0
53 118 0
-53 -118 0
53 128 0
-53 -128 0
53 145 0
-53 -145 0
54 63 0
-54 -63 0
54 82 0
-54 -82 0
54 153 0
-54 -153 0
55 58 0
-55 -58 0
55 70 0
-55 -70 0
55 94 0
-55 -94 0
55 109 0
-55 -109 0
55 110 0
-55 -110 0
55 146 0
-55 -146 0
55 155 0
-55 -155 0
56 60 0
-56 -60 0
56 84 0
-56 -84 0
56 105 0
-56 -105 0
56 109 0
-56 -109 0
56 125 0
-56 -125 0
56 154 0
-56 -154 0
56 156 0
-56 -156 0
57 75 0
-57 -75 0
57 86 0
-57 -86 0
57 100 0
-57 -100 0
57 134 0
-57 -134 0
57 139 0
-57 -139 0
57 142 0
-57 -142 0
57 152 0
-57 -152 0
58 68 0
-58 -68 0
58 95 0
-58 -95 0
58 98 0
-58 -98 0
58 114 0
-58 -114 0
58 126 0
-58 -126 0
58 141 0
-58 -141 0
58 153 0
-58 -153 0
59 61 0
-59 -61 0
59 78 0
-59 -78 0
59 80 0
-59 -80 0
59 97 0
-59 -97 0
59 111 0
-59 -111 0
59 114 0
-59 -114 0
59 115 0
-59 -115 0
59 124 0
-59 -124 0
59 139 0
-59 -139 0
59 142 0
-59 -142 0
60 67 0
-60 -67 0
60 71 0
-60 -71 0
60 90 0
-60 -90 0
60 138 0
-60 -138 0
61 93 0
-61 -93 0
61 117 0
-61 -117 0
61 154 0
-61 -154 0
61 157 0
-61 -157 0
62 91 0
-62 -91 0
62 94 0
-62 -94 0
62 115 0
-62 -115 0
62 138 0
-62 -138 0
63 66 0
-63 -66 0
63 106 0
-63 -106 0
63 111 0
-63 -111 0
63 134 0
-63 -134 0
64 65 0
-64 -65 0
64 76 0
-64 -76 0
64 84 0
-64 -84 0
64 112 0
-64 -112 0
64 118 0
-64 -118 0
64 125 0
-64 -125 0
64 135 0
-64 -135 0
64 142 0
-64 -142 0
64 157 0
-64 -157 0
64 158 0
-64 -158 0
65 79 0
-65 -79 0
65 83 0
-65 -83 0
65 87 0
-65 -87 0
65 108 0
-65 -108 0
65 109 0
-65 -109 0
65 137 0
-65 -137 0
65 142 0
-65 -142 0
65 149 0
-65 -149 0
66 87 0
-66 -87 0
66 95 0
-66 -95 0
66 115 0
-66 -115 0
66 124 0
-66 -124 0
66 132 0
-66 -132 0
66 154 0
-66 -154 0
67 78 0
-67 -78 0
67 81 0
-67 -81 0
67 148 0
-67 -148 0
68 115 0
-68 -115 0
68 140 0
-68 -140 0
68 154 0
-68 -154 0
68 157 0
-68 -157 0
68 160 0
-68 -160 0
69 93 0
-69 -93 0
69 100 0
-69 -100 0
69 115 0
-69 -115 0
69 121 0
-69 -121 0
69 146 0
-69 -146 0
69 154 0
-69 -154 0
70 72 0
-70 -72 0
70 78 0
-70 -78 0
70 84 0
-70 -84 0
70 103 0
-70 -103 0
71 78 0
-71 -78 0
71 86 0
-71 -86 0
71 108 0
-71 -108 0
72 74 0
-72 -74 0
72 75 0
-72 -75 0
72 91 0
-72 -91 0
72 103 0
-72 -103 0
72 108 0
-72 -108 0
72 116 0
-72 -116 0
72 128 0
-72 -128 0
72 135 0
-72 -135 0
72 147 0
-72 -147 0
72 159 0
-72 -159 0
73 109 0
-73 -109 0
73 125 0
-73 -125 0
74 85 0
-74 -85 0
74 100 0
-74 -100 0
74 103 0
-74 -103 0
74 106 0
-74 -106 0
74 126 0
-74 -126 0
74 132 0
-74 -132 0
74 146 0
-74 -146 0
74 151 0
-74 -151 0
74 156 0
-74 -156 0
74 160 0
-74 -160 0
75 89 0
-75 -89 0
75 93 0
-75 -93 0
75 102 0
-75 -102 0
75 121 0
-75 -121 0
75 149 0
-75 -149 0
75 155 0
-75 -155 0
75 156 0
-75 -156 0
76 77 0
-76 -77 0
76 86 0
-76 -86 0
76 87 0
-76 -87 0
76 91 0
-76 -91 0
76 94 0
-76 -94 0
76 95 0
-76 -95 0
76 98 0
-76 -98 0
76 104 0
-76 -104 0
76 119 0
-76 -119 0
76 136 0
-76 -136 0
76 142 0
-76 -142 0
76 148 0
-76 -148 0
76 149 0
-76 -149 0
76 154 0
-76 -154 0
77 83 0
-77 -83 0
77 84 0
-77 -84 0
77 99 0
-77 -99 0
77 127 0
-77 -127 0
77 147 0
-77 -147 0
77 160 0
-77 -160 0
78 84 0
-78 -84 0
78 109 0
-78 -109 0
78 119 0
-78 -119 0
78 126 0
-78 -126 0
78 134 0
-78 -134 0
79 81 0
-79 -81 0
79 100 0
-79 -100 0
79 115 0
-79 -115 0
79 135 0
-79 -135 0
79 139 0
-79 -139 0
79 146 0
-79 -146 0
79 151 0
-79 -151 0
79 160 0
-79 -160 0
80 83 0
-80 -83 0
80 93 0
-80 -93 0
80 135 0
-80 -135 0
80 138 0
-80 -138 0
80 142 0
-80 -142 0
80 146 0
-80 -146 0
80 160 0
-80 -160 0
81 82 0
-81 -82 0
81 101 0
-81 -101 0
81 136 0
-81 -136 0
81 151 0
-81 -151 0
82 101 0
-82 -101 0
82 112 0
-82 -112 0
82 114 0
-82 -114 0
82 144 0
-82 -144 0
82 150 0
-82 -150 0
83 93 0
-83 -93 0
83 96 0
-83 -96 0
84 127 0
-84 -127 0
84 133 0
-84 -133 0
84 137 0
-84 -137 0
85 86 0
-85 -86 0
85 88 0
-85 -88 0
85 106 0
-85 -106 0
85 117 0
-85 -117 0
85 121 0
-85 -121 0
85 134 0
-85 -134 0
85 148 0
-85 -148 0
85 149 0
-85 -149 0
85 150 0
-85 -150 0
85 160 0
-85 -160 0
86 93 0
-86 -93 0
86 96 0
-86 -96 0
86 107 0
-86 -107 0
86 145 0
-86 -145 0
86 155 0
-86 -155 0
87 94 0
-87 -94 0
87 120 0
-87 -120 0
88 124 0
-88 -124 0
88 135 0
-88 -135 0
88 144 0
-88 -144 0
88 150 0
-88 -150 0
88 156 0
-88 -156 0
89 96 0
-89 -96 0
89 102 0
-89 -102 0
89 105 0
-89 -105 0
89 118 0
-89 -118 0
89 134 0
-89 -134 0
89 147 0
-89 -147 0
89 153 0
-89 -153 0
90 123 0
-90 -123 0
90 140 0
-90 -140 0
91 117 0
-91 -117 0
91 125 0
-91 -125 0
91 128 0
-91 -128 0
91 132 0
-91 -132 0
91 142 0
-91 -142 0
91 153 0
-91 -153 0
91 154 0
-91 -154 0
91 160 0
-91 -160 0
92 101 0
-92 -101 0
92 109 0
-92 -109 0
92 113 0
-92 -113 0
92 124 0
-92 -124 0
92 126 0
-92 -126 0
92 136 0
-92 -136 0
92 146 0
-92 -146 0
93 103 0
-93 -103 0
93 104 0
-93 -104 0
93 117 0
-93 -117 0
93 124 0
-93 -124 0
93 146 0
-93 -146 0
93 149 0
-93 -149 0
94 96 0
-94 -96 0
94 106 0
-94 -106 0
94 120 0
-94 -120 0
94 159 0
-94 -159 0
95 108 0
-95 -108 0
95 113 0
-95 -113 0
95 136 0
-95 -136 0
95 150 0
-95 -150 0
95 156 0
-95 -156 0
95 159 0
-95 -159 0
96 110 0
-96 -110 0
96 112 0
-96 -112 0
96 121 0
-96 -121 0
96 144 0
-96 -144 0
97 103 0
-97 -103 0
97 119 0
-97 -119 0
97 128 0
-97 -128 0
97 131 0
-97 -131 0
97 140 0
-97 -140 0
98 102 0
-98 -102 0
98 114 0
-98 -114 0
98 129 0
-98 -129 0
98 137 0
-98 -137 0
98 139 0
-98 -139 0
99 103 0
-99 -103 0
99 124 0
-99 -124 0
99 132 0
-99 -132 0
99 135 0
-99 -135 0
99 136 0
-99 -136 0
99 152 0
-99 -152 0
99 154 0
-99 -154 0
99 158 0
-99 -158 0
100 123 0
-100 -123 0
100 160 0
-100 -160 0
101 113 0
-101 -113 0
101 116 0
-101 -116 0
101 117 0
-101 -117 0
101 125 0
-101 -125 0
101 130 0
-101 -130 0
101 145 0
-101 -145 0
101 154 0
-101 -154 0
101 160 0
-101 -160 0
102 129 0
-102 -129 0
102 133 0
-102 -133 0
102 157 0
-102 -157 0
103 132 0
-103 -132 0
103 152 0
-103 -152 0
104 106 0
-104 -106 0
106 153 0
-106 -153 0
106 154 0
-106 -154 0
107 124 0
-107 -124 0
108 109 0
-108 -109 0
108 132 0
-108 -132 0
108 135 0
-108 -135 0
108 137 0
-108 -137 0
108 143 0
-108 -143 0
109 114 0
-109 -114 0
109 118 0
-109 -118 0
109 121 0
-109 -121 0
110 159 0
-110 -159 0
110 160 0
-110 -160 0
111 131 0
-111 -131 0
111 159 0
-111 -159 0
112 117 0
-112 -117 0
112 141 0
-112 -141 0
112 146 0
-112 -146 0
113 114 0
-113 -114 0
113 123 0
-113 -123 0
113 155 0
-113 -155 0
114 117 0
-114 -117 0
114 125 0
-114 -125 0
114 133 0
-114 -133 0
114 137 0
-114 -137 0
114 140 0
-114 -140 0
114 146 0
-114 -146 0
114 149 0
-114 -149 0
114 151 0
-114 -151 0
116 151 0
-116 -151 0
116 154 0
-116 -154 0
117 126 0
-117 -126 0
117 129 0
-117 -129 0
117 137 0
-117 -137 0
117 156 0
-117 -156 0
118 138 0
-118 -138 0
118 153 0
-118 -153 0
120 122 0
-120 -122 0
120 123 0
-120 -123 0
120 136 0
-120 -136 0
120 142 0
-120 -142 0
120 155 0
-120 -155 0
121 138 0
-121 -138 0
121 157 0
-121 -157 0
122 137 0
-122 -137 0
122 154 0
-122 -154 0
123 135 0
-123 -135 0
123 142 0
-123 -142 0
124 137 0
-124 -137 0
124 140 0
-124 -140 0
124 157 0
-124 -157 0
125 131 0
-125 -131 0
125 138 0
-125 -138 0
126 143 0
-126 -143 0
126 155 0
-126 -155 0
127 145 0
-127 -145 0
127 152 0
-127 -152 0
128 160 0
-128 -160 0
129 142 0
-129 -142 0
130 148 0
-130 -148 0
130 154 0
-130 -154 0
131 156 0
-131 -156 0
133 134 0
-133 -134 0
133 139 0
-133 -139 0
135 136 0
-135 -136 0
135 156 0
-135 -156 0
135 157 0
-135 -157 0
137 156 0
-137 -156 0
138 142 0
-138 -142 0
138 143 0
-138 -143 0
138 144 0
-138 -144 0
138 150 0
-138 -150 0
139 147 0
-139 -147 0
140 145 0
-140 -145 0
141 145 0
-141 -145 0
141 148 0
-141 -148 0
141 158 0
-141 -158 0
142 151 0
-142 -151 0
142 158 0
-142 -158 0
144 150 0
-144 -150 0
144 156 0
-144 -156 0
145 150 0
-145 -150 0
145 159 0
-145 -159 0
146 157 0
-146 -157 0
146 158 0
-146 -158 0
147 148 0
-147 -148 0
147 151 0
-147 -151 0
147 159 0
-147 -159 0
148 150 0
-148 -150 0
148 155 0
-148 -155 0
151 153 0
-151 -153 0
156 160 0
-156 -160 0
